; benchmark generated from python API
(set-info :status unknown)
(declare-fun x_month () Int)
(declare-fun x_year () Int)
(declare-fun x_day () Int)
(assert
 (let (($x767 (or (= x_month 4) (= x_month 6) (= x_month 9) (= x_month 11))))
 (let ((?x695 (ite $x767 30 31)))
 (let (($x823 (= (mod x_year 400) 0)))
 (let (($x987 (= (mod x_year 4) 0)))
 (let ((?x847 (ite (or (and $x987 (and (distinct (mod x_year 100) 0) true)) $x823) 29 28)))
 (let (($x1034 (= x_month 2)))
 (let (($x1028 (<= x_day (ite $x1034 ?x847 ?x695))))
 (let (($x873 (>= x_day 1)))
 (let (($x480 (<= x_month 2)))
 (let (($x876 (>= x_month 1)))
 (let (($x455 (= x_year 2100)))
 (let (($x595 (<= x_month 12)))
 (let (($x1032 (<= x_year 2099)))
 (let (($x883 (>= x_year 1901)))
 (or (and (= x_year 1900) (>= x_month 3) $x595 $x873 $x1028) (and $x883 $x1032 $x876 $x595 $x873 $x1028) (and $x455 $x876 $x480 $x873 $x1028)))))))))))))))))
(assert
 (let (($x513 (= x_year 2023)))
 (let (($x974 (and $x513 (or (> x_month 1) (and (= x_month 1) (>= x_day 31))))))
 (or (> x_year 2023) $x974))))
(assert
 (let ((?x1021 (+ (mod (- (+ x_month (+ (* 0 12) 1)) 1) 12) 1)))
(let ((?x764 (ite (or (= ?x1021 4) (= ?x1021 6) (= ?x1021 9) (= ?x1021 11)) 30 31)))
(let ((?x1083 (+ 0 (div (- (+ x_month (+ (* 0 12) 1)) 1) 12))))
(let ((?x402 (+ x_year ?x1083)))
(let (($x542 (or (and (= (mod ?x402 4) 0) (and (distinct (mod ?x402 100) 0) true)) (= (mod ?x402 400) 0))))
(let ((?x593 (ite (= ?x1021 2) (ite $x542 29 28) ?x764)))
(let ((?x740 (ite (< x_day 1) 1 (ite (> x_day ?x593) ?x593 x_day))))
(let ((?x878 (ite (< ?x740 1) 1 (ite (> ?x740 ?x593) ?x593 ?x740))))
(let ((?x1057 (ite (= 2 ?x1021) (ite $x542 31 31) (ite (= 1 ?x1021) (ite $x542 0 0) 0))))
(let ((?x844 (ite (= 4 ?x1021) (ite $x542 91 90) (ite (= 3 ?x1021) (ite $x542 60 59) ?x1057))))
(let ((?x601 (ite (= 6 ?x1021) (ite $x542 152 151) (ite (= 5 ?x1021) (ite $x542 121 120) ?x844))))
(let ((?x555 (ite (= 8 ?x1021) (ite $x542 213 212) (ite (= 7 ?x1021) (ite $x542 182 181) ?x601))))
(let ((?x561 (ite (= 10 ?x1021) (ite $x542 274 273) (ite (= 9 ?x1021) (ite $x542 244 243) ?x555))))
(let ((?x441 (ite (= 12 ?x1021) (ite $x542 335 334) (ite (= 11 ?x1021) (ite $x542 305 304) ?x561))))
(let ((?x609 (- (+ (* 365 (- ?x402 1)) (div (- ?x402 1) 4)) (div (- ?x402 1) 100))))
(let ((?x416 (- (+ (+ (+ ?x609 (div (- ?x402 1) 400)) ?x441) (- ?x878 1)) 730179)))
(let ((?x1101 (+ (+ ?x416 0) 730179)))
(let ((?x1050 (mod ?x1101 146097)))
(let ((?x881 (div ?x1050 36524)))
(let ((?x643 (ite (<= 4 ?x881) 3 ?x881)))
(let ((?x1008 (- ?x1050 (* ?x643 36524))))
(let ((?x520 (mod ?x1008 1461)))
(let ((?x993 (div ?x520 365)))
(let ((?x518 (ite (<= 4 ?x993) 3 ?x993)))
(let ((?x566 (+ (+ (* (div ?x1101 146097) 400) (* ?x643 100)) (* (div ?x1008 1461) 4))))
(let ((?x1064 (+ (+ ?x566 ?x518) 1)))
(let (($x1122 (or (and (= (mod ?x1064 4) 0) (and (distinct (mod ?x1064 100) 0) true)) (= (mod ?x1064 400) 0))))
(let ((?x669 (- ?x520 (* ?x518 365))))
(let ((?x605 (ite $x1122 31 31)))
(let (($x819 (>= ?x669 ?x605)))
(let ((?x921 (ite $x819 (+ (- ?x669 ?x605) 1) (+ (- ?x669 (ite $x1122 0 0)) 1))))
(let ((?x560 (ite $x1122 60 59)))
(let (($x437 (>= ?x669 ?x560)))
(let ((?x1047 (ite $x1122 91 90)))
(let (($x902 (>= ?x669 ?x1047)))
(let ((?x722 (ite $x902 (+ (- ?x669 ?x1047) 1) (ite $x437 (+ (- ?x669 ?x560) 1) ?x921))))
(let ((?x717 (ite $x1122 121 120)))
(let (($x903 (>= ?x669 ?x717)))
(let ((?x670 (ite $x1122 152 151)))
(let (($x953 (>= ?x669 ?x670)))
(let ((?x427 (ite $x953 (+ (- ?x669 ?x670) 1) (ite $x903 (+ (- ?x669 ?x717) 1) ?x722))))
(let ((?x1100 (ite $x1122 182 181)))
(let (($x699 (>= ?x669 ?x1100)))
(let ((?x1065 (ite $x1122 213 212)))
(let (($x721 (>= ?x669 ?x1065)))
(let ((?x528 (ite $x721 (+ (- ?x669 ?x1065) 1) (ite $x699 (+ (- ?x669 ?x1100) 1) ?x427))))
(let ((?x1017 (ite $x1122 244 243)))
(let (($x466 (>= ?x669 ?x1017)))
(let ((?x1029 (ite $x1122 274 273)))
(let (($x428 (>= ?x669 ?x1029)))
(let ((?x895 (ite $x428 (+ (- ?x669 ?x1029) 1) (ite $x466 (+ (- ?x669 ?x1017) 1) ?x528))))
(let ((?x666 (ite $x1122 305 304)))
(let (($x905 (>= ?x669 ?x666)))
(let ((?x1020 (ite $x1122 335 334)))
(let (($x636 (>= ?x669 ?x1020)))
(let ((?x943 (ite $x636 (+ (- ?x669 ?x1020) 1) (ite $x905 (+ (- ?x669 ?x666) 1) ?x895))))
(let (($x624 (= 0 0)))
(let ((?x904 (ite $x903 5 (ite $x902 4 (ite $x437 3 (ite $x819 2 1))))))
(let ((?x462 (ite $x466 9 (ite $x721 8 (ite $x699 7 (ite $x953 6 ?x904))))))
(let ((?x732 (ite $x624 ?x1021 (ite $x636 12 (ite $x905 11 (ite $x428 10 ?x462))))))
(let (($x893 (or (< ?x732 3) (and (= ?x732 3) (<= (ite $x624 ?x878 ?x943) 1)))))
(or (< (ite $x624 ?x402 ?x1064) 2023) (and (= (ite $x624 ?x402 ?x1064) 2023) $x893))))))))))))))))))))))))))))))))))))))))))))))))))))))))))))))))
(check-sat)
